30
32 41
31 139
35 265
36 378
36 489
32 578
148 579
278 572
436 572
563 569
564 479
571 369
565 269
565 151
568 38
140 35
284 32
432 36
139 139
137 275
142 382
135 476
272 477
428 473
434 349
439 257
436 138
283 135
276 274
271 371
0 1
0 15
1 2
1 18
2 3
2 19
3 4
3 20
4 5
4 21
5 6
6 7
6 21
7 8
7 22
8 9
8 23
9 10
10 11
10 23
11 12
11 24
12 13
12 25
13 14
13 26
14 17
15 16
15 18
16 17
16 27
17 26
18 27
18 19
19 20
19 28
20 21
20 29
21 22
22 23
22 29
23 24
24 29
24 25
25 26
25 28
26 27
27 28
28 29
